12
0 63 14 43 33 98 55 66 42 78 84 49 
87 0 74 9 34 16 16 33 76 25 45 76 
42 97 0 27 70 67 43 55 38 23 32 65 
29 97 38 0 20 60 33 79 42 86 60 73 
40 2 82 85 0 50 27 94 13 53 9 40 
14 29 29 27 78 0 17 84 66 26 24 9 
93 39 69 19 4 94 0 79 36 35 2 79 
39 98 41 73 3 75 49 0 65 93 22 12 
86 36 88 94 63 15 47 79 0 86 82 84 
45 85 81 94 26 55 86 47 77 0 67 21 
37 85 39 28 74 30 48 8 35 48 0 55 
66 73 69 87 86 97 23 9 94 26 7 0 
